15
-1 191 571 383 118 305 58 294 218 487 284 264 433 300 108 
191 -1 746 192 278 343 153 346 398 661 456 455 623 150 294 
571 746 -1 932 566 540 593 760 353 86 497 338 324 872 510 
383 192 932 -1 460 473 344 468 588 846 637 647 813 158 483 
118 278 566 460 -1 413 176 213 233 488 178 230 362 344 61 
305 343 540 473 413 -1 264 599 303 461 532 402 582 494 370 
58 153 593 344 176 264 -1 336 244 508 342 306 481 284 164 
294 346 760 468 213 599 336 -1 444 687 283 423 501 313 274 
218 398 353 588 233 303 244 444 -1 269 260 99 281 519 172 
487 661 86 846 488 461 508 687 269 -1 435 264 290 788 430 
284 456 497 637 178 532 342 283 260 435 -1 186 217 511 178 
264 455 338 647 230 402 306 423 99 264 186 -1 185 558 178 
433 623 324 813 362 582 481 501 281 290 217 185 -1 706 330 
300 150 872 158 344 494 284 313 519 788 511 558 706 -1 381 
108 294 510 483 61 370 164 274 172 430 178 178 330 381 -1 
